
        $ From http://www.csplib.org/Problems/prob009/data/helmut.pdf
        $ Problem number 118
        $ Sequence length : 25
        language ESSENCE' 1.0
        letting sizemaster be 385
        letting sizes be sequence(1,2,7,13,15,17,18,25,27,29,30,31,43,46,49,56,61,68,73,93,100,105,119,161,224)
        